% demand
num_movements = 50;
loading_factor = [2000, 1400, 1650, 1850, 2000, 2000, 1650, 1250, 1250, 1700, 1400, 800, 1700, 900, 1200, 1000, 950, 850, 1150, 1350, 1600, 1800, 1350, 1950, 1050, 800, 1250, 800, 1550, 1200, 1450, 1800, 1700, 1450, 900, 1150, 1150, 1900, 1700, 1600, 1500, 1750, 1300, 1000, 1050, 1100, 900, 1650, 2000, 1250];
pickup_time = [0, 0, 0, 0, 1, 1, 2, 2, 2, 2, 2, 2, 2, 2, 3, 4, 4, 5, 5, 5, 5, 7, 7, 7, 7, 7, 7, 7, 8, 8, 8, 9, 9, 9, 9, 10, 10, 10, 10, 11, 11, 11, 11, 11, 11, 11, 11, 12, 12, 12];
delivery_time = [2, 2, 2, 2, 2, 2, 6, 3, 4, 4, 3, 5, 5, 3, 4, 6, 5, 8, 8, 6, 6, 8, 8, 8, 8, 8, 8, 8, 11, 10, 9, 10, 11, 11, 10, 11, 11, 11, 11, 12, 12, 13, 13, 12, 13, 13, 13, 13, 13, 13];

% transporter definition
total_capacity = 11000;
num_decks = 4;
capacity = [3000, 3000, 1000, 4000];

% ways out of decks
num_ways_out = 2;
paths_out = array3d(decks, ways_out, decks, [
% ways out of deck d1
2, 4, 0, 0, 3, 4, 0, 0, 

% ways out of deck d2
4, 0, 0, 0, 0, 0, 0, 0,	

% ways out of deck d3
4, 0, 0, 0, 0, 0, 0, 0,	

% ways out of deck d4
0, 0, 0, 0,	0, 0, 0, 0,	

]);

